NAME : morphed22-2-1
COMMENT : Generated using the function morphInstances from the R-package netgen (Bossek,2015) - Number of clusters: 2 Alpha: 0.5
TYPE : TSP
DIMENSION : 22
EDGE_WEIGHT_TYPE : EUC_2D
NODE_COORD_SECTION
1 23.1684743382 41.189640332
2 30.5923367412 13.561942257
3 40.070542411 21.031515788
4 91.5054680527 63.1027015517
5 11.1676340946 1.6149412383
6 90.6802772742 65.7908740846
7 95.0504645995 89.8927777728
8 43.3075873335 25.6598233479
9 74.35264653 70.0195582918
10 6.0482008512 39.1702609392
11 16.3452445328 33.2431506933
12 15.7142053419 16.047897745
13 69.9977105323 83.7980255668
14 32.7368724313 46.334996604
15 77.7508347587 83.323244422
16 38.1844050492 11.8636853697
17 75.238237748 80.720722623
18 99.1491156728 69.9041060359
19 52.6381946161 87.3726337726
20 84.1001901601 78.7017353096
21 93.3063252473 84.7949378343
22 16.0176220764 34.4057531041
EOF
